c nIsolatedPIs 18
c maxPI 14
p cnf 39 76
c gate 15 -6 -13 0
-6 -15 0
-13 -15 0
6 13 15 0
c gate 16 6 13 0
6 -16 0
13 -16 0
-6 -13 16 0
c gate 17 -5 -12 0
-5 -17 0
-12 -17 0
5 12 17 0
c gate 18 5 12 0
5 -18 0
12 -18 0
-5 -12 18 0
c gate 19 -4 -11 0
-4 -19 0
-11 -19 0
4 11 19 0
c gate 20 4 11 0
4 -20 0
11 -20 0
-4 -11 20 0
c gate 21 -3 -10 0
-3 -21 0
-10 -21 0
3 10 21 0
c gate 22 3 10 0
3 -22 0
10 -22 0
-3 -10 22 0
c gate 23 1 8 0
1 -23 0
8 -23 0
-1 -8 23 0
c gate 24 2 23 0
2 -24 0
23 -24 0
-2 -23 24 0
c gate 25 -9 -24 0
-9 -25 0
-24 -25 0
9 24 25 0
c gate 26 -2 -23 0
-2 -26 0
-23 -26 0
2 23 26 0
c gate 27 -25 -26 0
-25 -27 0
-26 -27 0
25 26 27 0
c gate 28 -22 -27 0
-22 -28 0
-27 -28 0
22 27 28 0
c gate 29 -21 -28 0
-21 -29 0
-28 -29 0
21 28 29 0
c gate 30 -20 -29 0
-20 -30 0
-29 -30 0
20 29 30 0
c gate 31 -19 -30 0
-19 -31 0
-30 -31 0
19 30 31 0
c gate 32 -18 -31 0
-18 -32 0
-31 -32 0
18 31 32 0
c gate 33 -17 -32 0
-17 -33 0
-32 -33 0
17 32 33 0
c gate 34 -16 -33 0
-16 -34 0
-33 -34 0
16 33 34 0
c gate 35 -15 -34 0
-15 -35 0
-34 -35 0
15 34 35 0
c gate 36 7 14 0
7 -36 0
14 -36 0
-7 -14 36 0
c gate 37 -7 -14 0
-7 -37 0
-14 -37 0
7 14 37 0
c gate 38 -36 -37 0
-36 -38 0
-37 -38 0
36 37 38 0
c gate 39 -35 38 0
-35 -39 0
38 -39 0
35 -38 39 0
c PO
39 0
